10
539 565 662  856
700 943 993  132
629 977 506  795
820 860 766  947
767 847 553  458
412 711 616  346
869 660 583  434
938 772 710  778
659 633 904  444
753 612 911  267
10
411 327 447  185 137
629 206 747  235 14
106 165 522  33 62
286 665 480  53 32
504 2 289  50 65
759 502 495  166 116
474 294 688  281 72
584 768 773  115 224
106 268 601  66 250
696 517 389  26 108
